output ([(((("\n"++problem_name)++"\n")++"L:")++show(L))++"\n"]++[if problem[i,j]==0 then "*" else show(letters[fix(L[problem[i,j]])]) endif++if j==cols then "\n" else "" endif | i in 1..rows, j in 1..cols, ])++["\n"];
int: rows = 10;
int: cols = 10;
array [1..rows,1..cols] of int: problem = [|0,0,0,1,2,3,4,0,0,0|0,0,5,6,7,8,9,0,0,0|0,10,11,12,13,14,15,16,0,0|17,18,19,20,21,0,0,22,23,24|25,26,27,28,0,0,0,29,30,31|32,33,34,0,0,0,35,36,37,38|39,40,41,0,0,42,43,44,45,46|0,0,47,48,49,50,51,52,53,0|0,0,0,54,55,56,57,58,0,0|0,0,0,59,60,61,62,0,0,0|];
int: num_letters = 26;
array [1..num_letters] of string: letters = ["a","b","c","d","e","f","g","h","i","j","k","l","m","n","o","p","q","r","s","t","u","v","w","x","y","z"];
int: N = 62;
array [0..N] of int: L;
string: problem_name = "puzzle14, 10 x 10";
